lpmln2cl
Clingo executed with command:
clingo /home/apradhan/proj/fact_check_kb/out.txt dataset/child/evidence/local/rudik/topset_conf_10k/400_unique.txt 
clingo version 4.5.4
Reading from ...me/apradhan/proj/fact_check_kb/out.txt ...
Solving...
Answer: 1
birthPlace("Julio_Londoño_Paredes","Bogotá") birthPlace("Julio_Londoño_Paredes","Colombia") birthPlace("Julio_Londoño_Paredes","Bogotá,_D.C.") predecessor("Julio_Londoño_Paredes","Luis_Fernando_Jaramillo_Correa") predecessor("Julio_Londoño_Paredes","Augusto_Ramírez_Ocampo") predecessor("Julio_Londoño_Paredes","Alberto_Villamizar_Cárdenas") president("Julio_Londoño_Paredes","Ernesto_Samper_Pizano") president("Julio_Londoño_Paredes","Álvaro_Uribe_Vélez") president("Julio_Londoño_Paredes","Andrés_Pastrana_Arango") president("Julio_Londoño_Paredes","Belisario_Betancur_Cuartas") president("Julio_Londoño_Paredes","César_Gaviria_Trujillo") president("Julio_Londoño_Paredes","Virgilio_Barco_Vargas") successor("Julio_Londoño_Paredes","Luis_Fernando_Jaramillo_Correa") successor("Julio_Londoño_Paredes","Alfonso_Valdivieso_Sarmiento") successor("Julio_Londoño_Paredes","Gustavo_Adolfo_Bell_Lemus") birthPlace("Luis_Fernando_Jaramillo_Correa","Barranquilla") birthPlace("Luis_Fernando_Jaramillo_Correa","Colombia") birthPlace("Luis_Fernando_Jaramillo_Correa","Atlántico_Department") birthPlace("Andrés_Pastrana_Arango","Bogotá") birthPlace("Andrés_Pastrana_Arango","Colombia") birthPlace("Andrés_Pastrana_Arango","Bogotá,_D.C.") birthPlace("Virgilio_Barco_Vargas","Colombia") birthPlace("Virgilio_Barco_Vargas","Cúcuta") birthPlace("Virgilio_Barco_Vargas","North_Santander") birthPlace("Alfonso_Valdivieso_Sarmiento","Colombia") birthPlace("Alfonso_Valdivieso_Sarmiento","Bucaramanga") birthPlace("Alfonso_Valdivieso_Sarmiento","Santander_Department") birthPlace("Augusto_Ramírez_Ocampo","Bogotá") deathPlace("Luis_Fernando_Jaramillo_Correa","Bogotá") deathPlace("Luis_Fernando_Jaramillo_Correa","Colombia") deathPlace("Luis_Fernando_Jaramillo_Correa","Bogota") deathPlace("Virgilio_Barco_Vargas","Bogotá") deathPlace("Virgilio_Barco_Vargas","Colombia") deathPlace("Virgilio_Barco_Vargas","Bogotá,_D.C.") deathPlace("Augusto_Ramírez_Ocampo","Bogotá") deathPlace("Augusto_Ramírez_Ocampo","Colombia") predecessor("Andrés_Pastrana_Arango","Ernesto_Samper_Pizano") predecessor("Andrés_Pastrana_Arango","Luis_Alberto_Moreno") predecessor("Virgilio_Barco_Vargas","Julio_César_Turbay_Ayala") predecessor("Virgilio_Barco_Vargas","Alfonso_López_Pumarejo") predecessor("Virgilio_Barco_Vargas","Belisario_Betancur_Cuartas") predecessor("Virgilio_Barco_Vargas","Fernando_Cepeda_Ulloa") predecessor("Augusto_Ramírez_Ocampo","Rodrigo_Hernán_Lloreda_Caicedo") predecessor("Augusto_Ramírez_Ocampo","Hernando_Durán_Dussán") child("Virgilio_Barco_Vargas","Virgilio_Barco_Isakson") child("Virgilio_Barco_Vargas","Carolina_Barco_Isakson") predecessor("Luis_Fernando_Jaramillo_Correa","Fernando_Cepeda_Ulloa") predecessor("Luis_Fernando_Jaramillo_Correa","Julio_Londoño_Paredes") predecessor("Alfonso_Valdivieso_Sarmiento","Julio_Londoño_Paredes") predecessor("Alfonso_Valdivieso_Sarmiento","Gustavo_de_Greiff_Restrepo") president("Luis_Fernando_Jaramillo_Correa","César_Gaviria_Trujillo") president("Luis_Fernando_Jaramillo_Correa","Virgilio_Barco_Vargas") president("Andrés_Pastrana_Arango","Álvaro_Uribe_Vélez") president("Virgilio_Barco_Vargas","Alfonso_López_Michelsen") president("Virgilio_Barco_Vargas","Alberto_Lleras_Camargo") president("Virgilio_Barco_Vargas","César_Gaviria_Trujillo") president("Virgilio_Barco_Vargas","Carlos_Lleras_Restrepo") president("Virgilio_Barco_Vargas","Guillermo_León_Valencia") president("Alfonso_Valdivieso_Sarmiento","Andrés_Pastrana_Arango") president("Alfonso_Valdivieso_Sarmiento","César_Gaviria_Trujillo") president("Alfonso_Valdivieso_Sarmiento","Virgilio_Barco_Vargas") president("Augusto_Ramírez_Ocampo","Belisario_Betancur") spouse("Andrés_Pastrana_Arango","Nohra_Puyana_Bickenbach") spouse("Virgilio_Barco_Vargas","Carolina_Isakson_Proctor") successor("Luis_Fernando_Jaramillo_Correa","Julio_Londoño_Paredes") successor("Luis_Fernando_Jaramillo_Correa","Noemí_Sanín_Posada") successor("Andrés_Pastrana_Arango","Álvaro_Uribe_Vélez") successor("Andrés_Pastrana_Arango","Nelson_Mandela") successor("Andrés_Pastrana_Arango","Carolina_Barco_Isakson") successor("Virgilio_Barco_Vargas","Misael_Pastrana_Borrero") successor("Virgilio_Barco_Vargas","César_Gaviria_Trujillo") successor("Virgilio_Barco_Vargas","Carlos_Sanz_de_Santamaría") successor("Alfonso_Valdivieso_Sarmiento","Alfonso_Gómez_Méndez") successor("Alfonso_Valdivieso_Sarmiento","María_Ángela_Holguín_Cuéllar") successor("Alfonso_Valdivieso_Sarmiento","Patricio_Samper_Gnecco") successor("Augusto_Ramírez_Ocampo","Julio_Londoño_Paredes") birthPlace("Misael_Pastrana_Borrero","Colombia") birthPlace("Misael_Pastrana_Borrero","Garzon_(suffragan)") birthPlace("Misael_Pastrana_Borrero","Huila_Department") birthPlace("Misael_Pastrana_Borrero","Neiva,_Colombia") birthPlace("Luis_Alberto_Moreno","Pennsylvania") birthPlace("Luis_Alberto_Moreno","Philadelphia") birthPlace("Luis_Alberto_Moreno","United_States") birthPlace("Nohra_Puyana_Bickenbach","Antioquia_Department") birthPlace("Nohra_Puyana_Bickenbach","Colombia") birthPlace("Nohra_Puyana_Bickenbach","Medellín") birthPlace("Álvaro_Uribe","Antioquia_Department") birthPlace("Álvaro_Uribe","Colombia") birthPlace("Álvaro_Uribe","Medellín") birthPlace("Nelson_Mandela","Union_of_South_Africa") birthPlace("Nelson_Mandela","Cape_Province") birthPlace("Nelson_Mandela","Mvezo") deathPlace("Misael_Pastrana_Borrero","Bogotá") deathPlace("Misael_Pastrana_Borrero","Colombia") deathPlace("Misael_Pastrana_Borrero","Bogotá,_D.C.") deathPlace("Nelson_Mandela","Johannesburg") deathPlace("Nelson_Mandela","South_Africa") deathPlace("Nelson_Mandela","Gauteng") deathPlace("Nelson_Mandela","Aiti") predecessor("Misael_Pastrana_Borrero","Carlos_Lleras_Restrepo") predecessor("Misael_Pastrana_Borrero","Virgilio_Barco_Vargas") predecessor("Álvaro_Uribe","Andrés_Pastrana_Arango") predecessor("President_of_Colombia","Álvaro_Uribe") child("Misael_Pastrana_Borrero","Andrés_Pastrana_Arango") predecessor("Luis_Alberto_Moreno","Juan_Carlos_Esguerra_Portocarrero") predecessor("Luis_Alberto_Moreno","Enrique_Valentín_Iglesias_García") predecessor("Nohra_Puyana_Bickenbach","Jacquin_Strouss_Lucena") president("Misael_Pastrana_Borrero","Alberto_Lleras_Camargo") president("Misael_Pastrana_Borrero","Carlos_Lleras_Restrepo") president("Luis_Alberto_Moreno","Andrés_Pastrana_Arango") president("Luis_Alberto_Moreno","César_Gaviria_Trujillo") president("Harvard_University","Drew_Gilpin_Faust") spouse("Misael_Pastrana_Borrero","María_Cristina_Arango_Vega") spouse("Nohra_Puyana_Bickenbach","Andrés_Pastrana_Arango") spouse("Álvaro_Uribe","Lina_María_Moreno_Mejía") spouse("Nelson_Mandela","Evelyn_Mase") spouse("Nelson_Mandela","Graça_Machel") spouse("Nelson_Mandela","Winnie_Madikizela-Mandela") successor("Misael_Pastrana_Borrero","Alfonso_López_Michelsen") successor("Luis_Alberto_Moreno","Mauricio_Cárdenas_Santa_María") successor("Luis_Alberto_Moreno","Andrés_Pastrana_Arango") successor("Nohra_Puyana_Bickenbach","Lina_María_Moreno_Mejía") successor("Álvaro_Uribe","Juan_Manuel_Santos_Calderón") successor("Nelson_Mandela","Thabo_Mbeki") negchild("Luis_Fernando_Jaramillo_Correa","Ernesto_Samper_Pizano") negchild("Luis_Fernando_Jaramillo_Correa","Luis_Alberto_Moreno") negchild("Luis_Fernando_Jaramillo_Correa","Julio_César_Turbay_Ayala") negchild("Luis_Fernando_Jaramillo_Correa","Alfonso_López_Pumarejo") negchild("Luis_Fernando_Jaramillo_Correa","Belisario_Betancur_Cuartas") negchild("Luis_Fernando_Jaramillo_Correa","Fernando_Cepeda_Ulloa") negchild("Augusto_Ramírez_Ocampo","Ernesto_Samper_Pizano") negchild("Augusto_Ramírez_Ocampo","Luis_Alberto_Moreno") negchild("Augusto_Ramírez_Ocampo","Julio_César_Turbay_Ayala") negchild("Augusto_Ramírez_Ocampo","Alfonso_López_Pumarejo") negchild("Augusto_Ramírez_Ocampo","Belisario_Betancur_Cuartas") negchild("Augusto_Ramírez_Ocampo","Fernando_Cepeda_Ulloa") negchild("Alberto_Villamizar_Cárdenas","Ernesto_Samper_Pizano") negchild("Alberto_Villamizar_Cárdenas","Luis_Alberto_Moreno") negchild("Alberto_Villamizar_Cárdenas","Julio_César_Turbay_Ayala") negchild("Alberto_Villamizar_Cárdenas","Alfonso_López_Pumarejo") negchild("Alberto_Villamizar_Cárdenas","Belisario_Betancur_Cuartas") negchild("Alberto_Villamizar_Cárdenas","Fernando_Cepeda_Ulloa") negchild("Fernando_Cepeda_Ulloa","Julio_César_Turbay_Ayala") negchild("Fernando_Cepeda_Ulloa","Alfonso_López_Pumarejo") negchild("Fernando_Cepeda_Ulloa","Belisario_Betancur_Cuartas") negchild("Fernando_Cepeda_Ulloa","Fernando_Cepeda_Ulloa") negchild("Julio_Londoño_Paredes","Julio_César_Turbay_Ayala") negchild("Julio_Londoño_Paredes","Alfonso_López_Pumarejo") negchild("Julio_Londoño_Paredes","Belisario_Betancur_Cuartas") negchild("Julio_Londoño_Paredes","Fernando_Cepeda_Ulloa") negchild("Julio_Londoño_Paredes","Ernesto_Samper_Pizano") negchild("Julio_Londoño_Paredes","Luis_Alberto_Moreno") negchild("Gustavo_de_Greiff_Restrepo","Ernesto_Samper_Pizano") negchild("Gustavo_de_Greiff_Restrepo","Luis_Alberto_Moreno") negchild("Gustavo_de_Greiff_Restrepo","Julio_César_Turbay_Ayala") negchild("Gustavo_de_Greiff_Restrepo","Alfonso_López_Pumarejo") negchild("Gustavo_de_Greiff_Restrepo","Belisario_Betancur_Cuartas") negchild("Gustavo_de_Greiff_Restrepo","Fernando_Cepeda_Ulloa") negchild("Juan_Carlos_Esguerra_Portocarrero","Ernesto_Samper_Pizano") negchild("Juan_Carlos_Esguerra_Portocarrero","Luis_Alberto_Moreno") negchild("Enrique_Valentín_Iglesias_García","Ernesto_Samper_Pizano") negchild("Enrique_Valentín_Iglesias_García","Luis_Alberto_Moreno") negchild("Luis_Fernando_Jaramillo_Correa","Julio_Londoño_Paredes") negchild("Virgilio_Barco_Vargas","Julio_César_Turbay_Ayala") negchild("Virgilio_Barco_Vargas","Alfonso_López_Pumarejo") negchild("Virgilio_Barco_Vargas","Belisario_Betancur_Cuartas") negchild("Virgilio_Barco_Vargas","Fernando_Cepeda_Ulloa") negchild("Augusto_Ramírez_Ocampo","Rodrigo_Hernán_Lloreda_Caicedo") negchild("Augusto_Ramírez_Ocampo","Hernando_Durán_Dussán") negchild("Misael_Pastrana_Borrero","Carlos_Lleras_Restrepo") negchild("Misael_Pastrana_Borrero","Virgilio_Barco_Vargas") negchild("Luis_Fernando_Jaramillo_Correa","Andrés_Pastrana_Arango") negchild("Augusto_Ramírez_Ocampo","Andrés_Pastrana_Arango") negchild("Luis_Alberto_Moreno","Andrés_Pastrana_Arango") negchild("Luis_Fernando_Jaramillo_Correa","Virgilio_Barco_Vargas") negchild("Augusto_Ramírez_Ocampo","Virgilio_Barco_Vargas") negchild("Julio_Londoño_Paredes","Virgilio_Barco_Vargas") negchild("Julio_Londoño_Paredes","Andrés_Pastrana_Arango") negchild("Andrés_Pastrana_Arango","Andrés_Pastrana_Arango") negchild("Virgilio_Barco_Vargas","Virgilio_Barco_Vargas") negchild("Alfonso_Valdivieso_Sarmiento","Virgilio_Barco_Vargas") negchild("Luis_Alberto_Moreno","Virgilio_Barco_Vargas") negchild("Virgilio_Barco_Vargas","Misael_Pastrana_Borrero") negchild("Alfonso_Valdivieso_Sarmiento","Luis_Alberto_Moreno") negchild("Luis_Alberto_Moreno","Luis_Alberto_Moreno") negchild("Julio_Londoño_Paredes","Luis_Fernando_Jaramillo_Correa") negchild("Julio_Londoño_Paredes","Augusto_Ramírez_Ocampo") negchild("Alfonso_Valdivieso_Sarmiento","Andrés_Pastrana_Arango") negchild("Gustavo_Adolfo_Bell_Lemus","Andrés_Pastrana_Arango") negchild("Álvaro_Uribe_Vélez","Andrés_Pastrana_Arango") negchild("Nelson_Mandela","Andrés_Pastrana_Arango") negchild("Carolina_Barco_Isakson","Andrés_Pastrana_Arango") negchild("Gustavo_Adolfo_Bell_Lemus","Virgilio_Barco_Vargas") negchild("Noemí_Sanín_Posada","Virgilio_Barco_Vargas") negchild("César_Gaviria_Trujillo","Virgilio_Barco_Vargas") negchild("Carlos_Sanz_de_Santamaría","Virgilio_Barco_Vargas") negchild("Alfonso_Gómez_Méndez","Virgilio_Barco_Vargas") negchild("María_Ángela_Holguín_Cuéllar","Virgilio_Barco_Vargas") negchild("Patricio_Samper_Gnecco","Virgilio_Barco_Vargas") negchild("Mauricio_Cárdenas_Santa_María","Virgilio_Barco_Vargas") negchild("Andrés_Pastrana_Arango","Virgilio_Barco_Vargas") negchild("Misael_Pastrana_Borrero","Misael_Pastrana_Borrero") negchild("César_Gaviria_Trujillo","Misael_Pastrana_Borrero") negchild("Carlos_Sanz_de_Santamaría","Misael_Pastrana_Borrero") negchild("Gustavo_Adolfo_Bell_Lemus","Luis_Alberto_Moreno") negchild("Alfonso_Gómez_Méndez","Luis_Alberto_Moreno") negchild("María_Ángela_Holguín_Cuéllar","Luis_Alberto_Moreno") negchild("Patricio_Samper_Gnecco","Luis_Alberto_Moreno") negchild("Mauricio_Cárdenas_Santa_María","Luis_Alberto_Moreno") negchild("Andrés_Pastrana_Arango","Luis_Alberto_Moreno")
Optimization: 0
OPTIMUM FOUND

Models       : 1     
  Optimum    : yes
Optimization : 0
Calls        : 1
Time         : 0.005s (Solving: 0.00s 1st Model: 0.00s Unsat: 0.00s)
CPU Time     : 0.000s
